(set-info :source |printed by MathSAT|)
(declare-fun param_init_invalid_s.next () Int)
(declare-fun call_synapse.mem_init_s.next () Int)
(declare-fun call_synapse.flby3.next () Int)
(declare-fun call_synapse.ite16.next () Int)
(declare-fun _OK_.next () Bool)
(declare-fun env.next () Bool)
(declare-fun call_synapse.ite8 () Int)
(declare-fun call_synapse.ite6 () Int)
(declare-fun call_synapse.flby2 () Int)
(declare-fun dirty_s.next () Int)
(declare-fun call_synapse.ite14.next () Int)
(declare-fun call_synapse.ite7.next () Int)
(declare-fun call_synapse.ite2.next () Int)
(declare-fun call_synapse.dirty_s () Int)
(declare-fun call_excludes3.excludes.next () Bool)
(declare-fun param_e_s1.next () Bool)
(declare-fun call_synapse.invalid_s () Int)
(declare-fun call_synapse.ite13.next () Int)
(declare-fun call_synapse.flby3 () Int)
(declare-fun call_synapse.flby.next () Int)
(declare-fun call_First.First () Int)
(declare-fun call_synapse.ite13 () Int)
(declare-fun call_First.flby () Int)
(declare-fun call_synapse.ite9.next () Int)
(declare-fun call_synapse.ite17 () Int)
(declare-fun invalid_s.next () Int)
(declare-fun call_synapse.ite2 () Int)
(declare-fun call_synapse.ite18.next () Int)
(declare-fun call_synapse.flby () Int)
(declare-fun call_Sofar.flby.next () Bool)
(declare-fun call_synapse.ite16 () Int)
(declare-fun call_First.First.next () Int)
(declare-fun call_synapse.dirty_s.next () Int)
(declare-fun call_synapse.flby2.next () Int)
(declare-fun valid_s () Int)
(declare-fun valid_s.next () Int)
(declare-fun call_synapse.flby4.next () Int)
(declare-fun call_synapse.ite3.next () Int)
(declare-fun call_Sofar.Sofar.next () Bool)
(declare-fun call_synapse.ite11.next () Int)
(declare-fun call_synapse.ite5 () Int)
(declare-fun call_synapse.ite () Int)
(declare-fun mem_init_s.next () Int)
(declare-fun call_synapse.ite5.next () Int)
(declare-fun mem_init_s () Int)
(declare-fun call_synapse.ite12.next () Int)
(declare-fun _OK_ () Bool)
(declare-fun call_synapse.ite11 () Int)
(declare-fun call_synapse.ite17.next () Int)
(declare-fun call_Sofar.Sofar () Bool)
(declare-fun call_synapse.ite12 () Int)
(declare-fun call_synapse.ite10 () Int)
(declare-fun call_synapse.garde_s1.next () Bool)
(declare-fun call_First.flby.next () Int)
(declare-fun call_Sofar.flby () Bool)
(declare-fun param_e_s2 () Bool)
(declare-fun call_synapse.invalid_s.next () Int)
(declare-fun param_e_s3.next () Bool)
(declare-fun param_e_s1 () Bool)
(declare-fun invalid_s () Int)
(declare-fun dirty_s () Int)
(declare-fun call_synapse.ite4.next () Int)
(declare-fun call_synapse.ite4 () Int)
(declare-fun call_synapse.ite10.next () Int)
(declare-fun call_synapse.ite18 () Int)
(declare-fun call_synapse.garde_s3.next () Bool)
(declare-fun call_synapse.ite7 () Int)
(declare-fun call_synapse.ite8.next () Int)
(declare-fun call_synapse.mem_init_s () Int)
(declare-fun call_synapse.garde_s2.next () Bool)
(declare-fun call_synapse.ite.next () Int)
(declare-fun env () Bool)
(declare-fun call_synapse.ite6.next () Int)
(declare-fun call_excludes3.excludes () Bool)
(declare-fun call_synapse.valid_s () Int)
(declare-fun param_e_s3 () Bool)
(declare-fun call_synapse.valid_s.next () Int)
(declare-fun call_synapse.flby4 () Int)
(declare-fun param_e_s2.next () Bool)
(declare-fun call_synapse.ite14 () Int)
(declare-fun call_synapse.ite15.next () Int)
(define-fun .def_799 () Bool (= call_First.flby.next call_First.First.next))
(define-fun .def_797 () Bool (= call_Sofar.flby.next call_Sofar.Sofar.next))
(define-fun .def_792 () Bool (and param_e_s3.next param_e_s2.next))
(define-fun .def_790 () Bool (and param_e_s3.next param_e_s1.next))
(define-fun .def_789 () Bool (and param_e_s1.next param_e_s2.next))
(define-fun .def_791 () Bool (or .def_789 .def_790))
(define-fun .def_793 () Bool (or .def_791 .def_792))
(define-fun .def_794 () Bool (not .def_793))
(define-fun .def_795 () Bool (= call_excludes3.excludes.next .def_794))
(define-fun .def_787 () Bool (= call_synapse.flby.next call_synapse.mem_init_s.next))
(define-fun .def_785 () Bool (= call_synapse.flby4.next call_synapse.dirty_s.next))
(define-fun .def_783 () Bool (= call_synapse.flby3.next call_synapse.valid_s.next))
(define-fun .def_781 () Bool (= call_synapse.flby2.next call_synapse.invalid_s.next))
(define-fun .def_777 () Bool (= call_synapse.ite16.next call_synapse.ite17.next))
(define-fun .def_778 () Bool (or param_e_s2.next .def_777))
(define-fun .def_774 () Bool (= call_synapse.ite14.next call_synapse.ite17.next))
(define-fun .def_765 () Bool (not param_e_s2.next))
(define-fun .def_775 () Bool (or .def_765 .def_774))
(define-fun .def_771 () Bool (= call_synapse.ite10.next call_synapse.ite11.next))
(define-fun .def_772 () Bool (or param_e_s2.next .def_771))
(define-fun .def_768 () Bool (= call_synapse.ite8.next call_synapse.ite11.next))
(define-fun .def_769 () Bool (or .def_765 .def_768))
(define-fun .def_764 () Bool (= call_synapse.ite2.next call_synapse.ite5.next))
(define-fun .def_766 () Bool (or .def_764 .def_765))
(define-fun .def_761 () Bool (= call_synapse.ite4.next call_synapse.ite5.next))
(define-fun .def_763 () Bool (or .def_761 param_e_s2.next))
(define-fun .def_767 () Bool (and .def_763 .def_766))
(define-fun .def_770 () Bool (and .def_767 .def_769))
(define-fun .def_773 () Bool (and .def_770 .def_772))
(define-fun .def_776 () Bool (and .def_773 .def_775))
(define-fun .def_779 () Bool (and .def_776 .def_778))
(define-fun .def_757 () Bool (= call_synapse.ite18.next call_synapse.ite17.next))
(define-fun .def_758 () Bool (or param_e_s1.next .def_757))
(define-fun .def_753 () Bool (= call_synapse.ite13.next call_synapse.ite18.next))
(define-fun .def_743 () Bool (not param_e_s1.next))
(define-fun .def_754 () Bool (or .def_743 .def_753))
(define-fun .def_750 () Bool (= call_synapse.ite12.next call_synapse.ite11.next))
(define-fun .def_751 () Bool (or param_e_s1.next .def_750))
(define-fun .def_746 () Bool (= call_synapse.ite7.next call_synapse.ite12.next))
(define-fun .def_747 () Bool (or .def_743 .def_746))
(define-fun .def_742 () Bool (= call_synapse.ite.next call_synapse.ite6.next))
(define-fun .def_744 () Bool (or .def_742 .def_743))
(define-fun .def_739 () Bool (= call_synapse.ite6.next call_synapse.ite5.next))
(define-fun .def_741 () Bool (or .def_739 param_e_s1.next))
(define-fun .def_745 () Bool (and .def_741 .def_744))
(define-fun .def_748 () Bool (and .def_745 .def_747))
(define-fun .def_752 () Bool (and .def_748 .def_751))
(define-fun .def_755 () Bool (and .def_752 .def_754))
(define-fun .def_759 () Bool (and .def_755 .def_758))
(define-fun .def_736 () Bool (= env.next call_Sofar.Sofar.next))
(define-fun .def_733 () Bool (= mem_init_s.next call_synapse.mem_init_s.next))
(define-fun .def_729 () Bool (= dirty_s.next call_synapse.dirty_s.next))
(define-fun .def_725 () Bool (= valid_s.next call_synapse.valid_s.next))
(define-fun .def_721 () Bool (= invalid_s.next call_synapse.invalid_s.next))
(define-fun .def_717 () Bool (<= invalid_s.next call_First.First.next))
(define-fun .def_714 () Bool (not env.next))
(define-fun .def_718 () Bool (or .def_714 .def_717))
(define-fun .def_719 () Bool (= _OK_.next .def_718))
(define-fun .def_722 () Bool (and .def_719 .def_721))
(define-fun .def_726 () Bool (and .def_722 .def_725))
(define-fun .def_730 () Bool (and .def_726 .def_729))
(define-fun .def_734 () Bool (and .def_730 .def_733))
(define-fun .def_737 () Bool (and .def_734 .def_736))
(define-fun .def_760 () Bool (and .def_737 .def_759))
(define-fun .def_780 () Bool (and .def_760 .def_779))
(define-fun .def_782 () Bool (and .def_780 .def_781))
(define-fun .def_784 () Bool (and .def_782 .def_783))
(define-fun .def_786 () Bool (and .def_784 .def_785))
(define-fun .def_788 () Bool (and .def_786 .def_787))
(define-fun .def_796 () Bool (and .def_788 .def_795))
(define-fun .def_798 () Bool (and .def_796 .def_797))
(define-fun .def_800 () Bool (and .def_798 .def_799))
(define-fun .def_563 () Bool (= call_First.flby call_First.First))
(define-fun .def_561 () Bool (= call_Sofar.flby call_Sofar.Sofar))
(define-fun .def_556 () Bool (and param_e_s3 param_e_s2))
(define-fun .def_554 () Bool (and param_e_s3 param_e_s1))
(define-fun .def_553 () Bool (and param_e_s1 param_e_s2))
(define-fun .def_555 () Bool (or .def_553 .def_554))
(define-fun .def_557 () Bool (or .def_555 .def_556))
(define-fun .def_558 () Bool (not .def_557))
(define-fun .def_559 () Bool (= call_excludes3.excludes .def_558))
(define-fun .def_551 () Bool (= call_synapse.flby call_synapse.mem_init_s))
(define-fun .def_549 () Bool (= call_synapse.flby4 call_synapse.dirty_s))
(define-fun .def_547 () Bool (= call_synapse.flby3 call_synapse.valid_s))
(define-fun .def_545 () Bool (= call_synapse.flby2 call_synapse.invalid_s))
(define-fun .def_541 () Bool (= call_synapse.ite16 call_synapse.ite17))
(define-fun .def_542 () Bool (or param_e_s2 .def_541))
(define-fun .def_538 () Bool (= call_synapse.ite14 call_synapse.ite17))
(define-fun .def_529 () Bool (not param_e_s2))
(define-fun .def_539 () Bool (or .def_529 .def_538))
(define-fun .def_535 () Bool (= call_synapse.ite10 call_synapse.ite11))
(define-fun .def_536 () Bool (or param_e_s2 .def_535))
(define-fun .def_532 () Bool (= call_synapse.ite8 call_synapse.ite11))
(define-fun .def_533 () Bool (or .def_529 .def_532))
(define-fun .def_528 () Bool (= call_synapse.ite5 call_synapse.ite2))
(define-fun .def_530 () Bool (or .def_528 .def_529))
(define-fun .def_524 () Bool (= call_synapse.ite4 call_synapse.ite5))
(define-fun .def_526 () Bool (or .def_524 param_e_s2))
(define-fun .def_531 () Bool (and .def_526 .def_530))
(define-fun .def_534 () Bool (and .def_531 .def_533))
(define-fun .def_537 () Bool (and .def_534 .def_536))
(define-fun .def_540 () Bool (and .def_537 .def_539))
(define-fun .def_543 () Bool (and .def_540 .def_542))
(define-fun .def_520 () Bool (= call_synapse.ite18 call_synapse.ite17))
(define-fun .def_521 () Bool (or param_e_s1 .def_520))
(define-fun .def_516 () Bool (= call_synapse.ite13 call_synapse.ite18))
(define-fun .def_503 () Bool (not param_e_s1))
(define-fun .def_517 () Bool (or .def_503 .def_516))
(define-fun .def_512 () Bool (= call_synapse.ite12 call_synapse.ite11))
(define-fun .def_513 () Bool (or param_e_s1 .def_512))
(define-fun .def_508 () Bool (= call_synapse.ite7 call_synapse.ite12))
(define-fun .def_509 () Bool (or .def_503 .def_508))
(define-fun .def_502 () Bool (= call_synapse.ite6 call_synapse.ite))
(define-fun .def_504 () Bool (or .def_502 .def_503))
(define-fun .def_498 () Bool (= call_synapse.ite6 call_synapse.ite5))
(define-fun .def_500 () Bool (or .def_498 param_e_s1))
(define-fun .def_505 () Bool (and .def_500 .def_504))
(define-fun .def_510 () Bool (and .def_505 .def_509))
(define-fun .def_514 () Bool (and .def_510 .def_513))
(define-fun .def_518 () Bool (and .def_514 .def_517))
(define-fun .def_522 () Bool (and .def_518 .def_521))
(define-fun .def_494 () Bool (= env call_Sofar.Sofar))
(define-fun .def_491 () Bool (= call_synapse.mem_init_s mem_init_s))
(define-fun .def_488 () Bool (= dirty_s call_synapse.dirty_s))
(define-fun .def_484 () Bool (= valid_s call_synapse.valid_s))
(define-fun .def_480 () Bool (= invalid_s call_synapse.invalid_s))
(define-fun .def_476 () Bool (<= invalid_s call_First.First))
(define-fun .def_473 () Bool (not env))
(define-fun .def_477 () Bool (or .def_473 .def_476))
(define-fun .def_478 () Bool (= _OK_ .def_477))
(define-fun .def_481 () Bool (and .def_478 .def_480))
(define-fun .def_485 () Bool (and .def_481 .def_484))
(define-fun .def_489 () Bool (and .def_485 .def_488))
(define-fun .def_492 () Bool (and .def_489 .def_491))
(define-fun .def_495 () Bool (and .def_492 .def_494))
(define-fun .def_523 () Bool (and .def_495 .def_522))
(define-fun .def_544 () Bool (and .def_523 .def_543))
(define-fun .def_546 () Bool (and .def_544 .def_545))
(define-fun .def_548 () Bool (and .def_546 .def_547))
(define-fun .def_550 () Bool (and .def_548 .def_549))
(define-fun .def_552 () Bool (and .def_550 .def_551))
(define-fun .def_560 () Bool (and .def_552 .def_559))
(define-fun .def_562 () Bool (and .def_560 .def_561))
(define-fun .def_564 () Bool (and .def_562 .def_563))
(define-fun .def_801 () Bool (and .def_564 .def_800))
(define-fun .def_710 () Bool (= call_First.First call_First.flby.next))
(define-fun .def_702 () Bool (<= 0 param_init_invalid_s.next))
(define-fun .def_704 () Bool (and .def_702 call_excludes3.excludes.next))
(define-fun .def_705 () Bool (and call_Sofar.Sofar .def_704))
(define-fun .def_707 () Bool (= .def_705 call_Sofar.flby.next))
(define-fun .def_699 () Bool (= call_synapse.ite18.next call_synapse.flby4.next))
(define-fun .def_695 () Bool (= call_synapse.ite12.next call_synapse.flby3.next))
(define-fun .def_691 () Bool (= call_synapse.ite6.next call_synapse.flby2.next))
(define-fun .def_687 () Bool (= call_synapse.mem_init_s call_synapse.flby.next))
(define-fun .def_665 () Bool (<= 1 call_synapse.invalid_s))
(define-fun .def_683 () Bool (= call_synapse.garde_s3.next .def_665))
(define-fun .def_680 () Bool (= call_synapse.ite9.next 0))
(define-fun .def_605 () Bool (not call_synapse.garde_s3.next))
(define-fun .def_681 () Bool (or .def_605 .def_680))
(define-fun .def_678 () Bool (= call_synapse.ite15.next 1))
(define-fun .def_679 () Bool (or .def_605 .def_678))
(define-fun .def_682 () Bool (and .def_679 .def_681))
(define-fun .def_684 () Bool (and .def_682 .def_683))
(define-fun .def_674 () Bool (<= 1 call_synapse.valid_s))
(define-fun .def_675 () Bool (= call_synapse.garde_s2.next .def_674))
(define-fun .def_671 () Bool (= call_synapse.ite8.next 0))
(define-fun .def_589 () Bool (not call_synapse.garde_s2.next))
(define-fun .def_672 () Bool (or .def_589 .def_671))
(define-fun .def_669 () Bool (= call_synapse.ite14.next 1))
(define-fun .def_670 () Bool (or .def_589 .def_669))
(define-fun .def_673 () Bool (and .def_670 .def_672))
(define-fun .def_676 () Bool (and .def_673 .def_675))
(define-fun .def_666 () Bool (= call_synapse.garde_s1.next .def_665))
(define-fun .def_663 () Bool (= call_synapse.ite13.next 0))
(define-fun .def_576 () Bool (not call_synapse.garde_s1.next))
(define-fun .def_664 () Bool (or .def_576 .def_663))
(define-fun .def_667 () Bool (and .def_664 .def_666))
(define-fun .def_659 () Bool (= call_synapse.dirty_s call_synapse.ite15.next))
(define-fun .def_660 () Bool (or call_synapse.garde_s3.next .def_659))
(define-fun .def_656 () Bool (= call_synapse.dirty_s call_synapse.ite13.next))
(define-fun .def_657 () Bool (or call_synapse.garde_s1.next .def_656))
(define-fun .def_653 () Bool (= call_synapse.dirty_s call_synapse.ite14.next))
(define-fun .def_654 () Bool (or call_synapse.garde_s2.next .def_653))
(define-fun .def_658 () Bool (and .def_654 .def_657))
(define-fun .def_661 () Bool (and .def_658 .def_660))
(define-fun .def_648 () Bool (= call_synapse.valid_s call_synapse.ite9.next))
(define-fun .def_649 () Bool (or call_synapse.garde_s3.next .def_648))
(define-fun .def_645 () Bool (= call_synapse.valid_s call_synapse.ite8.next))
(define-fun .def_646 () Bool (or call_synapse.garde_s2.next .def_645))
(define-fun .def_639 () Int (* (- 1) call_synapse.ite7.next))
(define-fun .def_640 () Int (+ call_synapse.valid_s .def_639))
(define-fun .def_641 () Bool (= .def_640 (- 1)))
(define-fun .def_642 () Bool (or .def_576 .def_641))
(define-fun .def_637 () Bool (= call_synapse.valid_s call_synapse.ite7.next))
(define-fun .def_638 () Bool (or call_synapse.garde_s1.next .def_637))
(define-fun .def_643 () Bool (and .def_638 .def_642))
(define-fun .def_647 () Bool (and .def_643 .def_646))
(define-fun .def_650 () Bool (and .def_647 .def_649))
(define-fun .def_632 () Bool (= call_synapse.dirty_s call_synapse.ite16.next))
(define-fun .def_633 () Bool (or param_e_s3.next .def_632))
(define-fun .def_629 () Bool (= call_synapse.ite15.next call_synapse.ite16.next))
(define-fun .def_616 () Bool (not param_e_s3.next))
(define-fun .def_630 () Bool (or .def_616 .def_629))
(define-fun .def_624 () Bool (= call_synapse.valid_s call_synapse.ite10.next))
(define-fun .def_625 () Bool (or param_e_s3.next .def_624))
(define-fun .def_621 () Bool (= call_synapse.ite9.next call_synapse.ite10.next))
(define-fun .def_622 () Bool (or .def_616 .def_621))
(define-fun .def_615 () Bool (= call_synapse.ite3.next call_synapse.ite4.next))
(define-fun .def_617 () Bool (or .def_615 .def_616))
(define-fun .def_612 () Bool (= call_synapse.invalid_s call_synapse.ite4.next))
(define-fun .def_614 () Bool (or .def_612 param_e_s3.next))
(define-fun .def_618 () Bool (and .def_614 .def_617))
(define-fun .def_623 () Bool (and .def_618 .def_622))
(define-fun .def_626 () Bool (and .def_623 .def_625))
(define-fun .def_631 () Bool (and .def_626 .def_630))
(define-fun .def_634 () Bool (and .def_631 .def_633))
(define-fun .def_608 () Bool (= call_synapse.invalid_s call_synapse.ite3.next))
(define-fun .def_609 () Bool (or call_synapse.garde_s3.next .def_608))
(define-fun .def_596 () Int (* (- 1) call_synapse.ite3.next))
(define-fun .def_600 () Int (+ call_synapse.dirty_s .def_596))
(define-fun .def_601 () Int (+ call_synapse.valid_s .def_600))
(define-fun .def_602 () Int (+ call_synapse.invalid_s .def_601))
(define-fun .def_603 () Bool (= .def_602 1))
(define-fun .def_606 () Bool (or .def_603 .def_605))
(define-fun .def_592 () Bool (= call_synapse.invalid_s call_synapse.ite2.next))
(define-fun .def_593 () Bool (or call_synapse.garde_s2.next .def_592))
(define-fun .def_580 () Int (* (- 1) call_synapse.ite2.next))
(define-fun .def_584 () Int (+ call_synapse.dirty_s .def_580))
(define-fun .def_585 () Int (+ call_synapse.valid_s .def_584))
(define-fun .def_586 () Int (+ call_synapse.invalid_s .def_585))
(define-fun .def_587 () Bool (= .def_586 0))
(define-fun .def_590 () Bool (or .def_587 .def_589))
(define-fun .def_570 () Int (* (- 1) call_synapse.ite.next))
(define-fun .def_573 () Int (+ call_synapse.dirty_s .def_570))
(define-fun .def_574 () Int (+ call_synapse.invalid_s .def_573))
(define-fun .def_575 () Bool (= .def_574 2))
(define-fun .def_577 () Bool (or .def_575 .def_576))
(define-fun .def_567 () Bool (= call_synapse.invalid_s call_synapse.ite.next))
(define-fun .def_569 () Bool (or .def_567 call_synapse.garde_s1.next))
(define-fun .def_578 () Bool (and .def_569 .def_577))
(define-fun .def_591 () Bool (and .def_578 .def_590))
(define-fun .def_594 () Bool (and .def_591 .def_593))
(define-fun .def_607 () Bool (and .def_594 .def_606))
(define-fun .def_610 () Bool (and .def_607 .def_609))
(define-fun .def_635 () Bool (and .def_610 .def_634))
(define-fun .def_651 () Bool (and .def_635 .def_650))
(define-fun .def_662 () Bool (and .def_651 .def_661))
(define-fun .def_668 () Bool (and .def_662 .def_667))
(define-fun .def_677 () Bool (and .def_668 .def_676))
(define-fun .def_685 () Bool (and .def_677 .def_684))
(define-fun .def_688 () Bool (and .def_685 .def_687))
(define-fun .def_692 () Bool (and .def_688 .def_691))
(define-fun .def_696 () Bool (and .def_692 .def_695))
(define-fun .def_700 () Bool (and .def_696 .def_699))
(define-fun .def_708 () Bool (and .def_700 .def_707))
(define-fun .def_711 () Bool (and .def_708 .def_710))
(define-fun .def_802 () Bool (and .def_711 .def_801))
(assert .def_802)
